18432
1 0 1 0 0 1 0 0 0 0 0 0 0 1 1 0 0 1 0 0 1 0 0 0 1 0 0 0 0 0 
13 17 20 2 20 24 14 5 17 0 14 20 20 20 0 14 2 17 5 17 17 0 0 17 24 20 17 24 24 5 24 0 20 0 20 20 5 5 2 14 0 2 24 14 5 14 0 13 17 17 14 2 14 24 20 13 2 14 17 14 0 24 20 5 0 5 5 0 5 24 2 13 17 2 24 13 0 20 14 24 13 17 13 0 17 0 0 2 20 24 17 24 2 2 2 24 2 14 0 20 13 0 14 5 14 0 0 2 14 14 14 14 17 17 5 5 24 5 5 24 24 20 5 20 20 0 24 14 17 0 17 2 24 5 13 14 2 24 13 17 0 13 20 20 20 5 2 5 2 5 
